14° run output:
{
    "Function": "euclidA500.tsp",
    "Problem dimension": [
        158,
        351,
        185,
        260,
        417,
        217,
        198,
        228,
        86,
        487,
        89,
        408,
        165,
        163,
        246,
        156,
        51,
        114,
        309,
        324,
        93,
        6,
        251,
        115,
        147,
        202,
        46,
        352,
        161,
        269,
        492,
        335,
        219,
        54,
        474,
        211,
        111,
        250,
        399,
        240,
        150,
        481,
        361,
        146,
        254,
        494,
        451,
        321,
        241,
        357,
        308,
        356,
        463,
        272,
        298,
        370,
        50,
        201,
        99,
        21,
        37,
        369,
        127,
        478,
        243,
        319,
        42,
        45,
        391,
        412,
        297,
        273,
        330,
        284,
        65,
        19,
        499,
        497,
        431,
        69,
        400,
        164,
        53,
        439,
        255,
        279,
        327,
        81,
        95,
        173,
        168,
        317,
        375,
        415,
        443,
        350,
        234,
        416,
        122,
        135,
        486,
        223,
        381,
        337,
        35,
        199,
        34,
        258,
        353,
        94,
        394,
        283,
        299,
        1,
        252,
        445,
        268,
        393,
        338,
        123,
        210,
        446,
        366,
        462,
        460,
        101,
        441,
        293,
        315,
        213,
        489,
        433,
        449,
        110,
        425,
        142,
        179,
        191,
        461,
        280,
        124,
        468,
        102,
        58,
        73,
        5,
        257,
        181,
        62,
        482,
        390,
        465,
        64,
        80,
        125,
        208,
        192,
        134,
        139,
        388,
        235,
        316,
        39,
        456,
        266,
        155,
        402,
        311,
        466,
        227,
        91,
        72,
        103,
        157,
        473,
        106,
        242,
        348,
        362,
        40,
        4,
        9,
        392,
        313,
        484,
        104,
        87,
        171,
        472,
        90,
        398,
        383,
        109,
        98,
        300,
        358,
        170,
        205,
        276,
        363,
        364,
        105,
        187,
        29,
        33,
        145,
        108,
        435,
        249,
        225,
        301,
        360,
        107,
        454,
        71,
        78,
        457,
        128,
        117,
        397,
        27,
        440,
        214,
        333,
        341,
        305,
        325,
        259,
        17,
        68,
        119,
        295,
        47,
        296,
        403,
        306,
        67,
        172,
        143,
        488,
        470,
        48,
        206,
        347,
        271,
        469,
        374,
        278,
        368,
        428,
        116,
        136,
        354,
        182,
        196,
        444,
        429,
        346,
        141,
        312,
        343,
        421,
        248,
        355,
        7,
        264,
        291,
        380,
        203,
        59,
        434,
        137,
        379,
        418,
        498,
        479,
        432,
        458,
        221,
        178,
        55,
        292,
        237,
        495,
        183,
        265,
        261,
        197,
        184,
        132,
        386,
        75,
        244,
        166,
        36,
        340,
        31,
        12,
        303,
        70,
        222,
        282,
        262,
        396,
        267,
        233,
        23,
        329,
        437,
        229,
        270,
        448,
        190,
        372,
        411,
        464,
        475,
        407,
        336,
        79,
        436,
        382,
        373,
        323,
        406,
        405,
        112,
        401,
        32,
        25,
        442,
        490,
        57,
        49,
        176,
        367,
        232,
        328,
        186,
        384,
        281,
        140,
        414,
        332,
        152,
        0,
        424,
        13,
        195,
        121,
        256,
        285,
        167,
        193,
        339,
        38,
        24,
        209,
        320,
        496,
        452,
        131,
        326,
        215,
        318,
        359,
        334,
        307,
        230,
        74,
        100,
        459,
        245,
        162,
        302,
        52,
        133,
        423,
        200,
        18,
        480,
        118,
        175,
        20,
        310,
        60,
        395,
        277,
        231,
        288,
        345,
        304,
        450,
        455,
        236,
        83,
        61,
        151,
        322,
        76,
        159,
        148,
        387,
        177,
        129,
        471,
        410,
        389,
        144,
        218,
        16,
        371,
        30,
        216,
        154,
        331,
        485,
        253,
        66,
        82,
        349,
        149,
        8,
        28,
        194,
        15,
        419,
        212,
        10,
        224,
        2,
        3,
        92,
        376,
        41,
        238,
        174,
        84,
        453,
        85,
        22,
        404,
        56,
        286,
        96,
        138,
        44,
        477,
        180,
        427,
        289,
        43,
        126,
        290,
        88,
        287,
        378,
        430,
        263,
        130,
        491,
        438,
        420,
        207,
        365,
        160,
        422,
        169,
        342,
        274,
        314,
        226,
        63,
        377,
        113,
        11,
        344,
        447,
        409,
        426,
        97,
        413,
        275,
        204,
        239,
        483,
        77,
        26,
        247,
        385,
        493,
        14,
        188,
        120,
        294,
        153,
        189,
        467,
        476,
        220
    ],
    "Global Optimum": 0,
    "Algorithm": "Genetic algorithm",
    "Parameters": {
        "population": 30,
        "offspring": 30,
        "mutation probability": 0.002,
        "crossover probability": 0.9
    },
    "Fitness": 597466,
    "Solution": [
        158,
        351,
        185,
        260,
        417,
        217,
        198,
        228,
        86,
        487,
        89,
        408,
        165,
        163,
        246,
        156,
        51,
        114,
        309,
        324,
        93,
        6,
        251,
        115,
        147,
        202,
        46,
        352,
        161,
        269,
        492,
        335,
        219,
        54,
        474,
        211,
        111,
        250,
        399,
        240,
        150,
        481,
        361,
        146,
        254,
        494,
        451,
        321,
        241,
        357,
        308,
        356,
        463,
        272,
        298,
        370,
        50,
        201,
        99,
        21,
        37,
        369,
        127,
        478,
        243,
        319,
        42,
        45,
        391,
        412,
        297,
        273,
        330,
        284,
        65,
        19,
        499,
        497,
        431,
        69,
        400,
        164,
        53,
        439,
        255,
        279,
        327,
        81,
        95,
        173,
        168,
        317,
        375,
        415,
        443,
        350,
        234,
        416,
        122,
        135,
        486,
        223,
        381,
        337,
        35,
        199,
        34,
        258,
        353,
        94,
        394,
        283,
        299,
        1,
        252,
        445,
        268,
        393,
        338,
        123,
        210,
        446,
        366,
        462,
        460,
        101,
        441,
        293,
        315,
        213,
        489,
        433,
        449,
        110,
        425,
        142,
        179,
        191,
        461,
        280,
        124,
        468,
        102,
        58,
        73,
        5,
        257,
        181,
        62,
        482,
        390,
        465,
        64,
        80,
        125,
        208,
        192,
        134,
        139,
        388,
        235,
        316,
        39,
        456,
        266,
        155,
        402,
        311,
        466,
        227,
        91,
        72,
        103,
        157,
        473,
        106,
        242,
        348,
        362,
        40,
        4,
        9,
        392,
        313,
        484,
        104,
        87,
        171,
        472,
        90,
        398,
        383,
        109,
        98,
        300,
        358,
        170,
        205,
        276,
        363,
        364,
        105,
        187,
        29,
        33,
        145,
        108,
        435,
        249,
        225,
        301,
        360,
        107,
        454,
        71,
        78,
        457,
        128,
        117,
        397,
        27,
        440,
        214,
        333,
        341,
        305,
        325,
        259,
        17,
        68,
        119,
        295,
        47,
        296,
        403,
        306,
        67,
        172,
        143,
        488,
        470,
        48,
        206,
        347,
        271,
        469,
        374,
        278,
        368,
        428,
        116,
        136,
        354,
        182,
        196,
        444,
        429,
        346,
        141,
        312,
        343,
        421,
        248,
        355,
        7,
        264,
        291,
        380,
        203,
        59,
        434,
        137,
        379,
        418,
        498,
        479,
        432,
        458,
        221,
        178,
        55,
        292,
        237,
        495,
        183,
        265,
        261,
        197,
        184,
        132,
        386,
        75,
        244,
        166,
        36,
        340,
        31,
        12,
        303,
        70,
        222,
        282,
        262,
        396,
        267,
        233,
        23,
        329,
        437,
        229,
        270,
        448,
        190,
        372,
        411,
        464,
        475,
        407,
        336,
        79,
        436,
        382,
        373,
        323,
        406,
        405,
        112,
        401,
        32,
        25,
        442,
        490,
        57,
        49,
        176,
        367,
        232,
        328,
        186,
        384,
        281,
        140,
        414,
        332,
        152,
        0,
        424,
        13,
        195,
        121,
        256,
        285,
        167,
        193,
        339,
        38,
        24,
        209,
        320,
        496,
        452,
        131,
        326,
        215,
        318,
        359,
        334,
        307,
        230,
        74,
        100,
        459,
        245,
        162,
        302,
        52,
        133,
        423,
        200,
        18,
        480,
        118,
        175,
        20,
        310,
        60,
        395,
        277,
        231,
        288,
        345,
        304,
        450,
        455,
        236,
        83,
        61,
        151,
        322,
        76,
        159,
        148,
        387,
        177,
        129,
        471,
        410,
        389,
        144,
        218,
        16,
        371,
        30,
        216,
        154,
        331,
        485,
        253,
        66,
        82,
        349,
        149,
        8,
        28,
        194,
        15,
        419,
        212,
        10,
        224,
        2,
        3,
        92,
        376,
        41,
        238,
        174,
        84,
        453,
        85,
        22,
        404,
        56,
        286,
        96,
        138,
        44,
        477,
        180,
        427,
        289,
        43,
        126,
        290,
        88,
        287,
        378,
        430,
        263,
        130,
        491,
        438,
        420,
        207,
        365,
        160,
        422,
        169,
        342,
        274,
        314,
        226,
        63,
        377,
        113,
        11,
        344,
        447,
        409,
        426,
        97,
        413,
        275,
        204,
        239,
        483,
        77,
        26,
        247,
        385,
        493,
        14,
        188,
        120,
        294,
        153,
        189,
        467,
        476,
        220
    ],
    "Nb of functions evaluations": 200010,
    "Computational time in seconds": 1007.1547927856445,
    "Stopping criterion in evaluations": 200000
}